* Problem:    gr4x6-pow2-prescaled
* Class:      LP
* Rows:       34
* Columns:    72
* Non-zeros:  120
* Format:     Free MPS
*
NAME gr4x6-pow2-prescaled
ROWS
 N R0000000
 E R0000001
 E R0000002
 E R0000003
 E R0000004
 E R0000005
 E R0000006
 E R0000007
 E R0000008
 E R0000009
 E R0000010
 E R0000011
 E R0000012
 E R0000013
 E R0000014
 E R0000015
 E R0000016
 E R0000017
 E R0000018
 E R0000019
 E R0000020
 E R0000021
 E R0000022
 E R0000023
 E R0000024
 E R0000025
 E R0000026
 E R0000027
 E R0000028
 E R0000029
 E R0000030
 E R0000031
 E R0000032
 E R0000033
 E R0000034
COLUMNS
 c0 R0000000 22.08 R0000011 32
 c0 R0000005 32 R0000001 32
 c1 R0000000 20.48 R0000012 32
 c1 R0000006 32 R0000001 32
 c2 R0000000 22.72 R0000013 32
 c2 R0000007 32 R0000001 32
 c3 R0000000 25.28 R0000014 32
 c3 R0000008 32 R0000001 32
 c4 R0000000 54.4 R0000015 32
 c4 R0000009 32 R0000001 32
 c5 R0000000 90.56 R0000016 32
 c5 R0000010 32 R0000001 32
 c6 R0000000 32.32 R0000017 32
 c6 R0000005 32 R0000002 32
 c7 R0000000 24 R0000018 32
 c7 R0000006 32 R0000002 32
 c8 R0000000 28.16 R0000019 32
 c8 R0000007 32 R0000002 32
 c9 R0000000 18.88 R0000020 32
 c9 R0000008 32 R0000002 32
 c10 R0000000 48 R0000021 32
 c10 R0000009 32 R0000002 32
 c11 R0000000 84.16 R0000022 32
 c11 R0000010 32 R0000002 32
 c12 R0000000 33.6 R0000023 32
 c12 R0000005 32 R0000003 32
 c13 R0000000 33.92 R0000024 32
 c13 R0000006 32 R0000003 32
 c14 R0000000 34.56 R0000025 32
 c14 R0000007 32 R0000003 32
 c15 R0000000 20.48 R0000026 32
 c15 R0000008 32 R0000003 32
 c16 R0000000 39.04 R0000027 32
 c16 R0000009 32 R0000003 32
 c17 R0000000 75.84 R0000028 32
 c17 R0000010 32 R0000003 32
 c18 R0000000 62.08 R0000029 32
 c18 R0000005 32 R0000004 32
 c19 R0000000 48 R0000030 32
 c19 R0000006 32 R0000004 32
 c20 R0000000 49.92 R0000031 32
 c20 R0000007 32 R0000004 32
 c21 R0000000 39.04 R0000032 32
 c21 R0000008 32 R0000004 32
 c22 R0000000 63.36 R0000033 32
 c22 R0000009 32 R0000004 32
 c23 R0000000 63.36 R0000034 32
 c23 R0000010 32 R0000004 32
 c24 R0000000 11 R0000011 -35
 c25 R0000000 16 R0000012 -30
 c26 R0000000 18 R0000013 -25
 c27 R0000000 34 R0000014 -30
 c28 R0000000 40 R0000015 -20
 c29 R0000000 80 R0000016 -20
 c30 R0000000 14 R0000017 -35
 c31 R0000000 17 R0000018 -30
 c32 R0000000 17 R0000019 -25
 c33 R0000000 26 R0000020 -30
 c34 R0000000 60 R0000021 -20
 c35 R0000000 52 R0000022 -20
 c36 R0000000 12 R0000023 -20
 c37 R0000000 13 R0000024 -20
 c38 R0000000 20 R0000025 -20
 c39 R0000000 34 R0000026 -30
 c40 R0000000 52 R0000027 -20
 c41 R0000000 60 R0000028 -20
 c42 R0000000 32 R0000029 -30
 c43 R0000000 38 R0000030 -30
 c44 R0000000 30 R0000031 -30
 c45 R0000000 22 R0000032 -30
 c46 R0000000 60 R0000033 -20
 c47 R0000000 48 R0000034 -20
 c48 R0000011 32
 c49 R0000012 32
 c50 R0000013 32
 c51 R0000014 32
 c52 R0000015 32
 c53 R0000016 32
 c54 R0000017 32
 c55 R0000018 32
 c56 R0000019 32
 c57 R0000020 32
 c58 R0000021 32
 c59 R0000022 32
 c60 R0000023 32
 c61 R0000024 32
 c62 R0000025 32
 c63 R0000026 32
 c64 R0000027 32
 c65 R0000028 32
 c66 R0000029 32
 c67 R0000030 32
 c68 R0000031 32
 c69 R0000032 32
 c70 R0000033 32
 c71 R0000034 32
RHS
 RHS1 R0000001 45 R0000002 35
 RHS1 R0000003 20 R0000004 15
 RHS1 R0000005 35 R0000006 30
 RHS1 R0000007 25 R0000008 15
 RHS1 R0000009 5 R0000010 5
BOUNDS
 UP BND1 c24 1
 UP BND1 c25 1
 UP BND1 c26 1
 UP BND1 c27 0.5
 UP BND1 c28 0.25
 UP BND1 c29 0.25
 UP BND1 c30 1
 UP BND1 c31 1
 UP BND1 c32 1
 UP BND1 c33 0.5
 UP BND1 c34 0.25
 UP BND1 c35 0.25
 UP BND1 c36 1
 UP BND1 c37 1
 UP BND1 c38 1
 UP BND1 c39 0.5
 UP BND1 c40 0.25
 UP BND1 c41 0.25
 UP BND1 c42 0.5
 UP BND1 c43 0.5
 UP BND1 c44 0.5
 UP BND1 c45 0.5
 UP BND1 c46 0.25
 UP BND1 c47 0.25
ENDATA
